p edge 37 141
e 1 4
e 1 7
e 1 10
e 1 16
e 1 23
e 1 25
e 1 34
e 2 14
e 2 28
e 3 6
e 3 7
e 3 12
e 3 15
e 3 20
e 3 21
e 3 22
e 3 24
e 3 25
e 3 31
e 3 33
e 4 7
e 4 8
e 4 10
e 4 18
e 4 25
e 4 34
e 5 9
e 5 15
e 5 27
e 5 30
e 5 32
e 6 12
e 6 20
e 6 22
e 6 28
e 6 33
e 7 11
e 7 12
e 7 21
e 7 23
e 7 24
e 7 25
e 7 29
e 7 31
e 7 34
e 8 10
e 8 15
e 8 27
e 8 30
e 8 34
e 9 15
e 9 30
e 9 32
e 9 33
e 10 18
e 10 34
e 11 13
e 11 21
e 11 23
e 11 24
e 11 25
e 11 29
e 11 31
e 11 35
e 11 37
e 12 19
e 12 20
e 12 21
e 12 22
e 12 23
e 12 24
e 12 25
e 12 28
e 12 29
e 12 31
e 13 19
e 13 23
e 13 24
e 13 26
e 13 29
e 13 35
e 13 36
e 13 37
e 14 19
e 14 26
e 14 28
e 14 35
e 15 21
e 15 27
e 15 30
e 15 31
e 15 32
e 15 33
e 15 34
e 17 36
e 17 37
e 18 34
e 19 24
e 19 26
e 19 28
e 19 29
e 19 35
e 20 21
e 20 22
e 20 28
e 20 33
e 21 22
e 21 23
e 21 24
e 21 25
e 21 29
e 21 31
e 22 28
e 22 33
e 23 24
e 23 25
e 23 29
e 23 31
e 23 34
e 23 37
e 24 25
e 24 29
e 24 31
e 24 35
e 24 37
e 25 29
e 25 31
e 25 34
e 25 37
e 26 28
e 26 29
e 26 35
e 27 30
e 27 32
e 29 31
e 29 35
e 29 37
e 30 32
e 31 34
e 35 37
e 36 37
